%
% Generated Sudoku 16x16
% Density approximation: 0.50
%
x = array2d(1..n, 1..n, [
   _,  13,  15,   _,   6,   _,   _,  12,  10,  16,   5,   4,   3,   1,   _,   _,
  16,   _,   _,   _,  10,  13,   9,   _,   _,  12,   1,  11,   7,   _,   4,   5,
   _,   _,   5,   _,   _,   7,   _,   _,   _,   _,   _,   3,  10,   9,  11,   _,
   _,   _,   1,  11,   5,   2,   3,   _,   7,   8,   _,   6,  12,  16,  13,  15,
   _,   _,   7,   8,   _,   4,  16,   _,   3,   1,  12,   5,   2,   _,   6,  13,
  15,   5,   4,   _,   2,   _,  14,   3,  11,   _,   _,  10,   _,  12,  16,   _,
   1,   9,   6,   2,   _,   _,  11,   _,  13,   _,   _,   _,  14,   _,  10,   4,
   3,  12,  16,   _,   _,   _,   _,   6,   _,   _,   2,   9,   5,   _,   8,   _,
  13,  15,  11,   _,   _,   _,   _,   _,  12,  10,   4,   7,   _,   8,   3,   2,
   6,   3,   2,   _,  15,   _,   _,  11,   _,   9,  14,  13,   _,   _,   1,  10,
   _,   _,   _,   5,   _,   _,   _,   2,   _,  11,   _,   _,   _,  14,   _,   _,
   _,   _,  12,   _,   8,   _,   _,  13,   _,   5,   3,   _,   _,   _,   9,   _,
  11,  16,   _,   _,   _,   6,   _,   5,   _,   _,  10,   _,   _,   _,   _,   _,
   5,   6,   _,   _,   7,   _,   _,   8,   _,   _,   _,   _,   _,  10,   _,   3,
   _,   _,   _,   _,   _,  10,  15,  16,   2,   _,  11,   _,   _,   _,   _,  12,
   _,   1,   _,  15,   _,   _,   _,   4,   _,   _,   _,   _,  16,   _,   _,   6
]);

n = 16;
